c random CNF
c satisfiable
p cnf 8 32
1 -2 -5 0
4 -4 -5 -6 0
4 -3 -4 -6 0
1 4 5 -7 0
7 -3 -4 -6 0
-1 -3 -4 -7 0
2 3 -6 0
5 7 -6 0
6 7 8 -2 0
3 -5 0
4 -4 -5 -7 0
8 -1 -5 -7 0
6 7 -2 -8 0
2 4 -3 -5 0
5 -2 0
2 3 7 -7 0
1 2 5 -7 0
2 4 5 -1 0
2 7 -6 -8 0
2 3 6 -7 0
6 8 -3 -5 0
3 -1 -6 0
3 4 5 -2 0
1 5 8 -1 0
1 2 -5 -8 0
5 -1 -5 -6 0
-2 -4 -8 0
2 7 -3 -8 0
1 3 4 -1 0
2 3 -2 -5 0
2 5 -1 -7 0
4 -2 -3 0